NAME : KROE99C.26021.tour
COMMENT : Cost = 0_26021
COMMENT : Found by LKH [Keld Helsgaun] Sun Sep 17 16:52:41 2017
TYPE : TOUR
DIMENSION : 99
TOUR_SECTION
1
76
94
36
28
23
15
50
60
10
80
31
66
13
4
2
11
95
85
77
37
34
92
30
90
48
42
5
8
25
54
45
98
17
40
35
88
63
58
97
51
69
47
3
46
26
79
16
73
61
71
81
89
14
52
44
72
68
38
33
22
39
43
86
19
93
18
24
29
99
78
53
55
6
70
91
82
67
27
87
41
75
9
57
65
96
84
49
20
56
62
64
59
32
12
7
21
74
83
-1
EOF
